NAME : portcgen-26-16
COMMENT : portcgen N=26, seed=16
TYPE : TSP
DIMENSION : 26
EDGE_WEIGHT_TYPE : EUC_2D
NODE_COORD_SECTION
1 -56456 -74701
2 -128351 -185099
3 262347 -65593
4 -225180 185769
5 139507 7107
6 -389855 171144
7 86340 205222
8 98357 248964
9 -99024 -117361
10 -72271 403158
11 53670 -104018
12 57479 -160040
13 -401059 139611
14 497754 -52597
15 166138 -170820
16 126516 -50890
17 200139 -57508
18 -171200 36483
19 -163137 82934
20 -91364 -201361
21 193819 55089
22 290444 -391900
23 76403 -107716
24 162860 164775
25 -34050 -44030
26 -57235 133876
